c t wmc
c file mc2022_track2_005.cnf
p cnf 100 250
-13 51 0
-17 51 0
-47 51 0
-36 51 0
-51 13 17 47 36 0
-18 52 0
-29 52 0
-19 52 0
-16 52 0
-52 18 29 19 16 0
-24 53 0
-48 53 0
-20 53 0
-35 53 0
-53 24 48 20 35 0
-2 54 0
-25 54 0
-7 54 0
-14 54 0
-54 2 25 7 14 0
-23 55 0
-18 55 0
-8 55 0
-7 55 0
-55 23 18 8 7 0
-28 56 0
-8 56 0
-47 56 0
-15 56 0
-56 28 8 47 15 0
-45 57 0
-46 57 0
-49 57 0
-37 57 0
-57 45 46 49 37 0
-4 58 0
-49 58 0
-46 58 0
-18 58 0
-58 4 49 46 18 0
-15 59 0
-44 59 0
-6 59 0
-34 59 0
-59 15 44 6 34 0
-24 60 0
-49 60 0
-23 60 0
-21 60 0
-60 24 49 23 21 0
-33 61 0
-26 61 0
-47 61 0
-41 61 0
-61 33 26 47 41 0
-42 62 0
-22 62 0
-10 62 0
-49 62 0
-62 42 22 10 49 0
-28 63 0
-40 63 0
-6 63 0
-25 63 0
-63 28 40 6 25 0
-6 64 0
-2 64 0
-22 64 0
-4 64 0
-64 6 2 22 4 0
-38 65 0
-27 65 0
-5 65 0
-35 65 0
-65 38 27 5 35 0
-44 66 0
-21 66 0
-30 66 0
-49 66 0
-66 44 21 30 49 0
-5 67 0
-3 67 0
-25 67 0
-47 67 0
-67 5 3 25 47 0
-25 68 0
-35 68 0
-22 68 0
-27 68 0
-68 25 35 22 27 0
-16 69 0
-45 69 0
-37 69 0
-14 69 0
-69 16 45 37 14 0
-22 70 0
-26 70 0
-21 70 0
-48 70 0
-70 22 26 21 48 0
-31 71 0
-22 71 0
-19 71 0
-37 71 0
-71 31 22 19 37 0
-11 72 0
-45 72 0
-41 72 0
-39 72 0
-72 11 45 41 39 0
-11 73 0
-26 73 0
-37 73 0
-17 73 0
-73 11 26 37 17 0
-30 74 0
-13 74 0
-22 74 0
-32 74 0
-74 30 13 22 32 0
-12 75 0
-48 75 0
-18 75 0
-36 75 0
-75 12 48 18 36 0
-21 76 0
-44 76 0
-1 76 0
-15 76 0
-76 21 44 1 15 0
-30 77 0
-14 77 0
-37 77 0
-7 77 0
-77 30 14 37 7 0
-36 78 0
-34 78 0
-38 78 0
-7 78 0
-78 36 34 38 7 0
-5 79 0
-24 79 0
-19 79 0
-49 79 0
-79 5 24 19 49 0
-16 80 0
-15 80 0
-39 80 0
-28 80 0
-80 16 15 39 28 0
-40 81 0
-28 81 0
-45 81 0
-19 81 0
-81 40 28 45 19 0
-40 82 0
-18 82 0
-50 82 0
-1 82 0
-82 40 18 50 1 0
-15 83 0
-19 83 0
-36 83 0
-12 83 0
-83 15 19 36 12 0
-36 84 0
-2 84 0
-44 84 0
-1 84 0
-84 36 2 44 1 0
-38 85 0
-50 85 0
-36 85 0
-24 85 0
-85 38 50 36 24 0
-39 86 0
-44 86 0
-28 86 0
-14 86 0
-86 39 44 28 14 0
-14 87 0
-28 87 0
-31 87 0
-17 87 0
-87 14 28 31 17 0
-9 88 0
-17 88 0
-44 88 0
-3 88 0
-88 9 17 44 3 0
-37 89 0
-33 89 0
-22 89 0
-38 89 0
-89 37 33 22 38 0
-36 90 0
-6 90 0
-21 90 0
-23 90 0
-90 36 6 21 23 0
-20 91 0
-7 91 0
-25 91 0
-13 91 0
-91 20 7 25 13 0
-9 92 0
-14 92 0
-47 92 0
-39 92 0
-92 9 14 47 39 0
-5 93 0
-40 93 0
-16 93 0
-20 93 0
-93 5 40 16 20 0
-4 94 0
-44 94 0
-1 94 0
-33 94 0
-94 4 44 1 33 0
-12 95 0
-9 95 0
-2 95 0
-5 95 0
-95 12 9 2 5 0
-13 96 0
-38 96 0
-39 96 0
-36 96 0
-96 13 38 39 36 0
-26 97 0
-24 97 0
-21 97 0
-33 97 0
-97 26 24 21 33 0
-45 98 0
-46 98 0
-2 98 0
-3 98 0
-98 45 46 2 3 0
-22 99 0
-16 99 0
-13 99 0
-37 99 0
-99 22 16 13 37 0
-32 100 0
-9 100 0
-26 100 0
-38 100 0
-100 32 9 26 38 0
c p weight 1 0.5 0
c p weight -1 0.5 0
c p weight 2 0.5 0
c p weight -2 0.5 0
c p weight 3 0.5 0
c p weight -3 0.5 0
c p weight 4 0.5 0
c p weight -4 0.5 0
c p weight 5 0.5 0
c p weight -5 0.5 0
c p weight 6 0.5 0
c p weight -6 0.5 0
c p weight 7 0.5 0
c p weight -7 0.5 0
c p weight 8 0.5 0
c p weight -8 0.5 0
c p weight 9 0.5 0
c p weight -9 0.5 0
c p weight 10 0.5 0
c p weight -10 0.5 0
c p weight 11 0.5 0
c p weight -11 0.5 0
c p weight 12 0.5 0
c p weight -12 0.5 0
c p weight 13 0.5 0
c p weight -13 0.5 0
c p weight 14 0.5 0
c p weight -14 0.5 0
c p weight 15 0.5 0
c p weight -15 0.5 0
c p weight 16 0.5 0
c p weight -16 0.5 0
c p weight 17 0.5 0
c p weight -17 0.5 0
c p weight 18 0.5 0
c p weight -18 0.5 0
c p weight 19 0.5 0
c p weight -19 0.5 0
c p weight 20 0.5 0
c p weight -20 0.5 0
c p weight 21 0.5 0
c p weight -21 0.5 0
c p weight 22 0.5 0
c p weight -22 0.5 0
c p weight 23 0.5 0
c p weight -23 0.5 0
c p weight 24 0.5 0
c p weight -24 0.5 0
c p weight 25 0.5 0
c p weight -25 0.5 0
c p weight 26 0.5 0
c p weight -26 0.5 0
c p weight 27 0.5 0
c p weight -27 0.5 0
c p weight 28 0.5 0
c p weight -28 0.5 0
c p weight 29 0.5 0
c p weight -29 0.5 0
c p weight 30 0.5 0
c p weight -30 0.5 0
c p weight 31 0.5 0
c p weight -31 0.5 0
c p weight 32 0.5 0
c p weight -32 0.5 0
c p weight 33 0.5 0
c p weight -33 0.5 0
c p weight 34 0.5 0
c p weight -34 0.5 0
c p weight 35 0.5 0
c p weight -35 0.5 0
c p weight 36 0.5 0
c p weight -36 0.5 0
c p weight 37 0.5 0
c p weight -37 0.5 0
c p weight 38 0.5 0
c p weight -38 0.5 0
c p weight 39 0.5 0
c p weight -39 0.5 0
c p weight 40 0.5 0
c p weight -40 0.5 0
c p weight 41 0.5 0
c p weight -41 0.5 0
c p weight 42 0.5 0
c p weight -42 0.5 0
c p weight 43 0.5 0
c p weight -43 0.5 0
c p weight 44 0.5 0
c p weight -44 0.5 0
c p weight 45 0.5 0
c p weight -45 0.5 0
c p weight 46 0.5 0
c p weight -46 0.5 0
c p weight 47 0.5 0
c p weight -47 0.5 0
c p weight 48 0.5 0
c p weight -48 0.5 0
c p weight 49 0.5 0
c p weight -49 0.5 0
c p weight 50 0.5 0
c p weight -50 0.5 0
c p weight 51 0.99200904 0
c p weight -51 0.00799096 0
c p weight 52 0.98950238 0
c p weight -52 0.01049762 0
c p weight 53 0.99702095 0
c p weight -53 0.00297905 0
c p weight 54 0.99067109 0
c p weight -54 0.00932891 0
c p weight 55 0.99899777 0
c p weight -55 0.00100223 0
c p weight 56 0.99052063 0
c p weight -56 0.00947937 0
c p weight 57 0.98238369 0
c p weight -57 0.01761631 0
c p weight 58 0.99237073 0
c p weight -58 0.00762927 0
c p weight 59 0.99990016 0
c p weight -59 9.984e-05 0
c p weight 60 0.98948355 0
c p weight -60 0.01051645 0
c p weight 61 0.9878075 0
c p weight -61 0.0121925 0
c p weight 62 0.98030483 0
c p weight -62 0.01969517 0
c p weight 63 0.99141364 0
c p weight -63 0.00858636 0
c p weight 64 0.99375868 0
c p weight -64 0.00624132 0
c p weight 65 0.99795054 0
c p weight -65 0.00204946 0
c p weight 66 0.99695581 0
c p weight -66 0.00304419 0
c p weight 67 0.98476395 0
c p weight -67 0.01523605 0
c p weight 68 0.98744155 0
c p weight -68 0.01255845 0
c p weight 69 0.99766483 0
c p weight -69 0.00233517 0
c p weight 70 0.99875162 0
c p weight -70 0.00124838 0
c p weight 71 0.98118294 0
c p weight -71 0.01881706 0
c p weight 72 0.99309837 0
c p weight -72 0.00690163 0
c p weight 73 0.98720052 0
c p weight -73 0.01279948 0
c p weight 74 0.99147462 0
c p weight -74 0.00852538 0
c p weight 75 0.98935128 0
c p weight -75 0.01064872 0
c p weight 76 0.99399042 0
c p weight -76 0.00600958 0
c p weight 77 0.98406848 0
c p weight -77 0.01593152 0
c p weight 78 0.98500728 0
c p weight -78 0.01499272 0
c p weight 79 0.98266616 0
c p weight -79 0.01733384 0
c p weight 80 0.98154232 0
c p weight -80 0.01845768 0
c p weight 81 0.98036177 0
c p weight -81 0.01963823 0
c p weight 82 0.98750993 0
c p weight -82 0.01249007 0
c p weight 83 0.98405 0
c p weight -83 0.01595 0
c p weight 84 0.98973832 0
c p weight -84 0.01026168 0
c p weight 85 0.99863009 0
c p weight -85 0.00136991 0
c p weight 86 0.99851642 0
c p weight -86 0.00148358 0
c p weight 87 0.98896646 0
c p weight -87 0.01103354 0
c p weight 88 0.9900676 0
c p weight -88 0.0099324 0
c p weight 89 0.99228559 0
c p weight -89 0.00771441 0
c p weight 90 0.99720313 0
c p weight -90 0.00279687 0
c p weight 91 0.99646593 0
c p weight -91 0.00353407 0
c p weight 92 0.99755302 0
c p weight -92 0.00244698 0
c p weight 93 0.99470074 0
c p weight -93 0.00529926 0
c p weight 94 0.9952678 0
c p weight -94 0.0047322 0
c p weight 95 0.98619174 0
c p weight -95 0.01380826 0
c p weight 96 0.98920164 0
c p weight -96 0.01079836 0
c p weight 97 0.99846229 0
c p weight -97 0.00153771 0
c p weight 98 0.98814018 0
c p weight -98 0.01185982 0
c p weight 99 0.99438223 0
c p weight -99 0.00561777 0
c p weight 100 0.99716268 0
c p weight -100 0.00283732 0
